id: 1770
name: watson_2
group: mittelmann/misc
method: 2

Gurobi 7.0.2 (linux64, Matlab) logging started Tue Apr 10 17:11:33 2018


Gurobi 7.0.2 (linux64) logging started Tue Apr 10 17:11:33 2018

Optimize a model with 352013 rows, 671861 columns and 1841028 nonzeros
Coefficient statistics:
  Matrix range     [1e-02, 8e+00]
  Objective range  [4e-04, 4e-04]
  Bounds range     [0e+00, 0e+00]
  RHS range        [1e+00, 1e+03]
Presolve removed 247135 rows and 373471 columns
Presolve time: 0.77s
Presolved: 104878 rows, 298390 columns, 1168570 nonzeros

Ordering time: 0.08s

Barrier statistics:
 AA' NZ     : 1.097e+06
 Factor NZ  : 2.921e+06 (roughly 200 MBytes of memory)
 Factor Ops : 1.158e+08 (less than 1 second per iteration)
 Threads    : 4

                  Objective                Residual
Iter       Primal          Dual         Primal    Dual     Compl     Time
   0  -5.95542882e+02  0.00000000e+00  1.32e+04 5.95e-03  2.41e+01     1s
   1  -8.74299735e+02 -4.97821174e+04  9.55e+03 6.25e-02  1.77e+01     1s
   2  -1.19184023e+03 -7.62286115e+04  8.12e+03 5.81e-02  1.48e+01     1s
   3  -1.61811393e+03 -1.19881836e+05  6.94e+03 4.47e-02  1.18e+01     1s
   4  -1.95481436e+03 -1.43960607e+05  6.09e+03 3.74e-02  9.82e+00     1s
   5  -2.41000358e+03 -1.59631058e+05  4.73e+03 3.16e-02  7.89e+00     1s
   6  -2.56225031e+03 -1.70133995e+05  4.16e+03 2.64e-02  6.76e+00     2s
   7  -2.65316663e+03 -1.82324364e+05  3.69e+03 1.97e-02  5.41e+00     2s
   8  -2.71052229e+03 -1.87033446e+05  2.69e+03 1.44e-02  3.87e+00     2s
   9  -2.49090320e+03 -1.68892238e+05  1.78e+03 8.39e-03  2.39e+00     2s
  10  -2.26713645e+03 -1.45486938e+05  1.29e+03 4.45e-03  1.46e+00     2s
  11  -1.73043931e+03 -9.48864938e+04  5.23e+02 2.20e-03  6.80e-01     2s
  12  -1.47297385e+03 -2.27959139e+04  4.43e+01 2.62e-04  1.05e-01     2s
  13  -1.88317523e+03 -1.47415977e+04  1.75e+01 1.63e-04  6.10e-02     2s
  14  -2.46239615e+03 -1.16669432e+04  7.85e+00 1.16e-04  4.30e-02     2s
  15  -3.09035645e+03 -9.52604093e+03  5.33e+00 8.27e-05  3.03e-02     2s
  16  -3.47238665e+03 -8.65194524e+03  4.22e+00 6.78e-05  2.46e-02     2s
  17  -3.75500414e+03 -8.29506351e+03  3.54e+00 6.12e-05  2.18e-02     2s
  18  -4.06622373e+03 -7.82711710e+03  2.93e+00 5.19e-05  1.84e-02     2s
  19  -4.32184751e+03 -7.56222502e+03  2.57e+00 4.57e-05  1.61e-02     2s
  20  -4.52345600e+03 -7.36317426e+03  2.35e+00 4.00e-05  1.42e-02     2s
  21  -4.83834939e+03 -7.20984610e+03  2.04e+00 3.44e-05  1.21e-02     3s
  22  -5.30547051e+03 -7.13361318e+03  1.66e+00 2.99e-05  9.92e-03     3s
  23  -5.63057226e+03 -7.08847232e+03  1.38e+00 2.25e-05  7.83e-03     3s
  24  -5.70789870e+03 -7.10038702e+03  1.31e+00 1.92e-05  7.20e-03     3s
  25  -5.91786183e+03 -7.11745140e+03  1.15e+00 1.82e-05  6.47e-03     3s
  26  -6.10377014e+03 -7.14063783e+03  1.00e+00 1.68e-05  5.79e-03     3s
  27  -6.18941800e+03 -7.14648330e+03  9.38e-01 1.63e-05  5.47e-03     3s
  28  -6.27575596e+03 -7.17136035e+03  8.73e-01 1.43e-05  5.00e-03     3s
  29  -6.52371301e+03 -7.19087188e+03  6.87e-01 1.34e-05  4.16e-03     3s
  30  -6.70146531e+03 -7.24425604e+03  5.58e-01 1.09e-05  3.41e-03     3s
  31  -7.02234913e+03 -7.27614095e+03  3.25e-01 9.30e-06  2.26e-03     3s
  32  -7.18221274e+03 -7.29710498e+03  2.17e-01 8.44e-06  1.68e-03     3s
  33  -7.25293193e+03 -7.34485671e+03  1.71e-01 6.62e-06  1.33e-03     3s
  34  -7.32829270e+03 -7.41726356e+03  1.23e-01 4.00e-06  9.17e-04     3s
  35  -7.37553897e+03 -7.44382485e+03  9.23e-02 3.11e-06  7.12e-04     3s
  36  -7.43004933e+03 -7.49085942e+03  6.10e-02 1.58e-06  4.49e-04     4s
  37  -7.48770402e+03 -7.51801003e+03  2.90e-02 7.87e-07  2.24e-04     4s
  38  -7.50458439e+03 -7.53193548e+03  2.01e-02 3.72e-07  1.49e-04     4s
  39  -7.51784548e+03 -7.53843426e+03  1.33e-02 1.88e-07  9.75e-05     4s
  40  -7.52876571e+03 -7.54147990e+03  7.77e-03 9.89e-08  5.75e-05     4s
  41  -7.53728078e+03 -7.54301658e+03  3.48e-03 5.39e-08  2.74e-05     4s
  42  -7.54188125e+03 -7.54404452e+03  1.23e-03 2.36e-08  1.09e-05     4s
  43  -7.54408302e+03 -7.54473255e+03  2.85e-04 3.21e-09  2.66e-06     4s
  44  -7.54478208e+03 -7.54483107e+03  5.41e-06 2.99e-10  1.70e-07     4s
  45  -7.54482807e+03 -7.54483000e+03  1.99e-07 4.99e-10  6.64e-09     4s
  46  -7.54482991e+03 -7.54482996e+03  1.84e-09 2.14e-10  1.77e-10     4s

Barrier solved model in 46 iterations and 4.26 seconds
Optimal objective -7.54482991e+03

Crossover log...

       0 DPushes remaining with DInf 3.4341684e-01                 5s

   73412 PPushes remaining with PInf 6.0607227e-02                 5s
    5023 PPushes remaining with PInf 3.6397632e-03                 5s
       0 PPushes remaining with PInf 0.0000000e+00                 5s

  Push phase complete: Pinf 0.0000000e+00, Dinf 1.1189970e+00      5s

Iteration    Objective       Primal Inf.    Dual Inf.      Time
  126539   -7.5448202e+03   0.000000e+00   1.118997e+00      5s
  143056   -7.5448300e+03   0.000000e+00   0.000000e+00      7s

Solved in 143056 iterations and 7.26 seconds
Optimal objective -7.544829958e+03
status: OPTIMAL
